p cnf 12 50 
-3 -6 -8 0
4 -9 -12 0
-3 -11 5 0
8 -2 -6 0
7 -2 -6 0
5 -2 7 0
-1 12 11 0
10 -12 1 0
7 -5 -4 0
9 11 -7 0
-3 4 -10 0
-8 11 3 0
-11 -10 -12 0
-5 -11 7 0
7 11 5 0
-11 8 -12 0
6 4 2 0
8 9 -6 0
9 -4 -3 0
12 -10 3 0
-10 5 6 0
-3 12 2 0
1 -7 12 0
6 2 -12 0
-4 -8 -7 0
-5 3 -2 0
4 -9 -11 0
6 -9 11 0
-3 7 12 0
-7 10 -11 0
5 2 -4 0
1 3 -8 0
12 -5 -4 0
-10 2 5 0
2 -3 8 0
-1 -5 -7 0
-3 -6 -10 0
-8 12 -6 0
3 9 1 0
9 1 -6 0
-7 2 -10 0
-1 10 -9 0
1 -2 -3 0
8 5 -10 0
-4 -2 -6 0
-7 -1 5 0
6 11 4 0
-10 -8 11 0
1 9 -3 0
-5 11 -3 0
